p cnf 10 22
-3 -1 -2 0
3 1 0
3 2 0
-4 -1 -3 0
4 1 0
4 3 0
-5 -2 -3 0
5 2 0
5 3 0
-6 -4 -5 0
6 4 0
6 5 0
-8 -1 -7 0
8 1 0
8 7 0
-9 -8 -5 0
9 8 0
9 5 0
-10 -6 -9 0
-10 6 9 0
10 -6 9 0
10 6 -9 0
-7 0
10 0